NAME : mr58
COMMENT : 58-city problem (DISC)
TYPE : TSP
DIMENSION : 58
EDGE_WEIGHT_TYPE : EUC_2D
NODE_COORD_SECTION
1 37 2
2 46 33
3 50 3
4 8 79
5 58 60
6 29 57
7 31 91
8 38 59
9 82 80
10 97 60
11 79 69
12 39 42
13 17 23
14 55 29
15 78 33
16 31 88
17 66 51
18 30 11
19 4 66
20 95 7
21 16 91
22 28 58
23 58 76
24 56 95
25 8 5
26 17 6
27 73 72
28 13 55
29 37 67
30 2 35
31 52 41
32 25 61
33 51 97
34 38 9
35 38 15
36 43 42
37 58 74
38 60 13
39 55 90
40 85 22
41 29 2
42 9 18
43 66 40
44 23 7
45 83 78
46 40 28
47 68 21
48 91 87
49 69 45
50 95 7
51 98 71
52 58 72
53 99 14
54 27 13
55 56 85
56 2 94
57 75 46
58 89 93
EOF
